90 362582
79 67 76 71 29 84 16 65 32 34 36 18 39 12 30 7 6 53 50 31 19 47 1 44 69 90 83 60 13 74 46 15 82 55 61 35 73 66 42 24 51 45 20 87 26 28 10 58 33 59 40 88 78 54 89 85 2 3 14 68 11 8 17 4 9 21 52 27 38 41 81 43 37 86 72 75 70 56 49 62 80 48 77 25 63 5 57 64 22 23 
